Begin step 0
Stress 0 0 0 0 0 0 0 0 0
Strain 0 0 0 0 0 0 0 0 0
Strain mean 0 0 0 0 0 0 0 0 0
Plastic strain_mean 0 0 0 0 0 0 0 0 0
Plastic strain_rate_mean 0 0 0 0 0 0 0 0 0
Dissipation 0
End step 0
Begin step 1
Stress 11.4253 -2.57881e-12 8.35041e-12 -2.57881e-12 1.98686e-13 -3.91144e-12 8.35041e-12 -3.91144e-12 7.77841e-14
Strain 0.00133333 0 0 0 0 0 0 0 0
Strain mean 0.00133333 -1.85882e-11 -1.15044e-11 -1.85882e-11 -0.000655914 1.86149e-14 -1.15044e-11 1.86149e-14 -0.000655914
Plastic strain_mean 0.00123918 -1.85882e-11 -1.15045e-11 -1.85882e-11 -0.000619588 1.86332e-14 -1.15045e-11 1.86332e-14 -0.000619588
Plastic strain_rate_mean 0 0 0 0 0 0 0 0 0
Dissipation 0.00117983
End step 1
Begin step 2
Stress 12.2755 -4.27719e-12 9.88021e-14 -4.27719e-12 5.80587e-13 -2.38314e-12 9.88021e-14 -2.38314e-12 -4.0755e-13
Strain 0.00266667 0 0 0 0 0 0 0 0
Strain mean 0.00266667 -1.85749e-11 -1.01241e-11 -1.85749e-11 -0.00132178 -6.48789e-12 -1.01241e-11 -6.48789e-12 -0.00132178
Plastic strain_mean 0.0025655 -1.85749e-11 -1.01241e-11 -1.85749e-11 -0.00128275 -6.48787e-12 -1.01241e-11 -6.48787e-12 -0.00128275
Plastic strain_rate_mean 0 0 0 0 0 0 0 0 0
Dissipation 0.00135677
End step 2
Begin step 3
Stress 12.3795 -2.77276e-12 5.49455e-13 -2.77276e-12 -1.45253e-12 -1.75735e-13 5.49455e-13 -1.75735e-13 -1.90498e-13
Strain 0.004 0 0 0 0 0 0 0 0
Strain mean 0.004 -1.85812e-11 -1.00393e-11 -1.85812e-11 -0.00198835 -6.87316e-12 -1.00393e-11 -6.87316e-12 -0.00198835
Plastic strain_mean 0.00389798 -1.85812e-11 -1.00393e-11 -1.85812e-11 -0.00194899 -6.87316e-12 -1.00393e-11 -6.87316e-12 -0.00194899
Plastic strain_rate_mean 0 0 0 0 0 0 0 0 0
Dissipation 0.00137461
End step 3
Begin step 4
Stress 12.4306 -4.27383e-12 3.62055e-12 -4.27383e-12 -1.18819e-12 -1.16804e-12 3.62055e-12 -1.16804e-12 -3.8698e-13
Strain 0.00533333 0 0 0 0 0 0 0 0
Strain mean 0.00533333 -1.85827e-11 -1.00342e-11 -1.85827e-11 -0.00265497 -6.90051e-12 -1.00342e-11 -6.90051e-12 -0.00265497
Plastic strain_mean 0.00523089 -1.85827e-11 -1.00342e-11 -1.85827e-11 -0.00261545 -6.90051e-12 -1.00342e-11 -6.90051e-12 -0.00261545
Plastic strain_rate_mean 0 0 0 0 0 0 0 0 0
Dissipation 0.00138074
End step 4
Begin step 5
Stress 12.478 -4.57846e-12 -7.33421e-12 -4.57846e-12 7.85819e-13 2.19703e-12 -7.33421e-12 2.19703e-12 6.28324e-14
Strain 0.00666667 0 0 0 0 0 0 0 0
Strain mean 0.00666667 -1.93659e-11 -1.07089e-11 -1.93659e-11 -0.00332159 -6.90156e-12 -1.07089e-11 -6.90156e-12 -0.00332159
Plastic strain_mean 0.00656383 -1.93659e-11 -1.07089e-11 -1.93659e-11 -0.00328192 -6.90157e-12 -1.07089e-11 -6.90157e-12 -0.00328192
Plastic strain_rate_mean 0 0 0 0 0 0 0 0 0
Dissipation 0.00138604
End step 5
Begin step 6
Stress 12.5252 -3.35614e-12 -2.10455e-12 -3.35614e-12 -4.88584e-13 8.81641e-13 -2.10455e-12 8.81641e-13 -1.95421e-13
Strain 0.008 0 0 0 0 0 0 0 0
Strain mean 0.008 -1.92513e-11 -1.06043e-11 -1.92513e-11 -0.00398821 -6.90267e-12 -1.06043e-11 -6.90267e-12 -0.00398821
Plastic strain_mean 0.00789678 -1.92513e-11 -1.06043e-11 -1.92513e-11 -0.00394839 -6.90267e-12 -1.06043e-11 -6.90267e-12 -0.00394839
Plastic strain_rate_mean 0 0 0 0 0 0 0 0 0
Dissipation 0.00139128
End step 6
Begin step 7
Stress 12.5723 -2.49387e-12 -1.60618e-11 -2.49387e-12 1.28341e-12 -1.74544e-11 -1.60618e-11 -1.74544e-11 -5.71704e-13
Strain 0.00933333 0 0 0 0 0 0 0 0
Strain mean 0.00933333 -1.92554e-11 -1.0609e-11 -1.92554e-11 -0.00465483 -6.90295e-12 -1.0609e-11 -6.90295e-12 -0.00465483
Plastic strain_mean 0.00922972 -1.92554e-11 -1.0609e-11 -1.92554e-11 -0.00461486 -6.90287e-12 -1.0609e-11 -6.90287e-12 -0.00461486
Plastic strain_rate_mean 0 0 0 0 0 0 0 0 0
Dissipation 0.00139652
End step 7
Begin step 8
Stress 12.6194 -1.75472e-12 -2.97657e-11 -1.75472e-12 2.81997e-12 -3.58798e-11 -2.97657e-11 -3.58798e-11 -1.22189e-12
Strain 0.0106667 0 0 0 0 0 0 0 0
Strain mean 0.0106667 -1.92596e-11 -1.06138e-11 -1.92596e-11 -0.00532146 -6.90324e-12 -1.06138e-11 -6.90324e-12 -0.00532146
Plastic strain_mean 0.0105627 -1.92596e-11 -1.06137e-11 -1.92596e-11 -0.00528133 -6.90307e-12 -1.06137e-11 -6.90307e-12 -0.00528133
Plastic strain_rate_mean 0 0 0 0 0 0 0 0 0
Dissipation 0.00140175
End step 8
Begin step 9
Stress 12.6666 -6.92709e-13 -4.33499e-11 -6.92709e-13 4.55326e-12 -5.4231e-11 -4.33499e-11 -5.4231e-11 -1.68131e-12
Strain 0.012 0 0 0 0 0 0 0 0
Strain mean 0.012 -1.92637e-11 -1.06186e-11 -1.92637e-11 -0.00598808 -6.90353e-12 -1.06186e-11 -6.90353e-12 -0.00598808
Plastic strain_mean 0.0118956 -1.92637e-11 -1.06184e-11 -1.92637e-11 -0.00594781 -6.90328e-12 -1.06184e-11 -6.90328e-12 -0.00594781
Plastic strain_rate_mean 0 0 0 0 0 0 0 0 0
Dissipation 0.00140698
End step 9
Begin step 10
Stress 12.7137 -5.42325e-12 -4.37902e-12 -5.42325e-12 1.79278e-13 -3.86007e-12 -4.37902e-12 -3.86007e-12 -2.60215e-13
Strain 0.0133333 0 0 0 0 0 0 0 0
Strain mean 0.0133333 -1.92648e-11 -1.06195e-11 -1.92648e-11 -0.0066547 -6.90276e-12 -1.06195e-11 -6.90276e-12 -0.0066547
Plastic strain_mean 0.0132286 -1.92648e-11 -1.06194e-11 -1.92648e-11 -0.00661428 -6.90274e-12 -1.06194e-11 -6.90274e-12 -0.00661428
Plastic strain_rate_mean 0 0 0 0 0 0 0 0 0
Dissipation 0.00141222
End step 10
Begin step 11
Stress 12.7608 -9.88261e-12 3.43127e-11 -9.88261e-12 -3.86222e-12 4.67867e-11 3.43127e-11 4.67867e-11 1.5496e-12
Strain 0.0146667 0 0 0 0 0 0 0 0
Strain mean 0.0146667 -1.92659e-11 -1.06203e-11 -1.92659e-11 -0.00732132 -6.90199e-12 -1.06203e-11 -6.90199e-12 -0.00732132
Plastic strain_mean 0.0145615 -1.92659e-11 -1.06205e-11 -1.92659e-11 -0.00728075 -6.90221e-12 -1.06205e-11 -6.90221e-12 -0.00728075
Plastic strain_rate_mean 0 0 0 0 0 0 0 0 0
Dissipation 0.00141745
End step 11
Begin step 12
Stress 12.8079 -2.21052e-12 9.34044e-13 -2.21052e-12 -9.0897e-13 4.13411e-12 9.34044e-13 4.13411e-12 -4.28241e-13
Strain 0.016 0 0 0 0 0 0 0 0
Strain mean 0.016 -1.92646e-11 -1.06204e-11 -1.92646e-11 -0.00798795 -6.90087e-12 -1.06204e-11 -6.90087e-12 -0.00798795
Plastic strain_mean 0.0158944 -1.92646e-11 -1.06204e-11 -1.92646e-11 -0.00794722 -6.90089e-12 -1.06204e-11 -6.90089e-12 -0.00794722
Plastic strain_rate_mean 0 0 0 0 0 0 0 0 0
Dissipation 0.00142269
End step 12
Begin step 13
Stress 12.855 5.30212e-12 -3.16625e-11 5.30212e-12 2.54934e-12 -3.89517e-11 -3.16625e-11 -3.89517e-11 -1.84458e-12
Strain 0.0173333 0 0 0 0 0 0 0 0
Strain mean 0.0173333 -1.92633e-11 -1.06204e-11 -1.92633e-11 -0.00865457 -6.89974e-12 -1.06204e-11 -6.89974e-12 -0.00865457
Plastic strain_mean 0.0172274 -1.92633e-11 -1.06202e-11 -1.92633e-11 -0.0086137 -6.89956e-12 -1.06202e-11 -6.89956e-12 -0.0086137
Plastic strain_rate_mean 0 0 0 0 0 0 0 0 0
Dissipation 0.00142792
End step 13
Begin step 14
Stress 12.9022 -2.52629e-12 -2.18012e-12 -2.52629e-12 4.32796e-13 -6.59767e-12 -2.18012e-12 -6.59767e-12 2.99834e-13
Strain 0.0186667 0 0 0 0 0 0 0 0
Strain mean 0.0186667 -1.92645e-11 -1.0621e-11 -1.92645e-11 -0.00932119 -6.89882e-12 -1.0621e-11 -6.89882e-12 -0.00932119
Plastic strain_mean 0.0185603 -1.92644e-11 -1.0621e-11 -1.92644e-11 -0.00928017 -6.89879e-12 -1.0621e-11 -6.89879e-12 -0.00928017
Plastic strain_rate_mean 0 0 0 0 0 0 0 0 0
Dissipation 0.00143316
End step 14
Begin step 15
Stress 12.9493 -1.04194e-11 2.71289e-11 -1.04194e-11 -2.35534e-12 2.58955e-11 2.71289e-11 2.58955e-11 1.74847e-12
Strain 0.02 0 0 0 0 0 0 0 0
Strain mean 0.02 -1.92656e-11 -1.06217e-11 -1.92656e-11 -0.00998781 -6.89789e-12 -1.06217e-11 -6.89789e-12 -0.00998781
Plastic strain_mean 0.0198933 -1.92655e-11 -1.06218e-11 -1.92655e-11 -0.00994664 -6.89801e-12 -1.06218e-11 -6.89801e-12 -0.00994664
Plastic strain_rate_mean 0 0 0 0 0 0 0 0 0
Dissipation 0.00143839
End step 15
